NAME : input200_1.txt .out.tour
COMMENT : Tour for input200_1.txt .tsp (Length 2835.34)
TYPE : TOUR
DIMENSION : 200
TOUR_SECTION
1
180
118
112
36
53
113
2
85
159
81
167
64
173
21
74
18
8
177
186
27
70
143
10
28
105
48
82
141
179
56
170
11
25
165
39
130
188
116
106
195
174
154
86
168
75
69
163
87
17
148
35
23
79
89
14
60
137
96
13
109
90
58
191
144
92
5
6
193
103
71
189
54
184
127
3
98
100
72
131
128
135
40
76
146
198
156
134
182
62
155
73
9
61
83
110
172
166
176
187
66
139
126
31
151
171
12
20
190
59
4
52
120
133
44
104
42
162
63
97
132
77
49
145
122
181
129
136
78
38
114
68
196
41
200
183
199
94
121
153
65
45
152
43
91
107
158
194
117
50
160
175
149
169
24
93
32
124
138
51
123
55
101
119
178
115
37
95
99
88
84
22
80
57
140
147
157
30
111
108
33
26
142
19
102
29
197
164
34
125
15
192
161
150
7
16
47
185
46
67
1
